Optimal - objective value -5131.00000000
     77 x_77                   1         -32.8045112781955
     85 x_85                   1         -64.406015037594
    243 x_243                  1         12.9699248120301
    276 x_276                  1                       0
    279 x_279                  1         -21.2105263157895
    322 x_322                  1                       0
    365 x_365                  1                     -49
    382 x_382                  1                       0
    391 x_391                  1                       0
    395 x_395                  1         -0.898496240601503
    419 x_419                  1         44.015037593985
    437 x_437                  1                       0
    462 x_462                  1                       0
    464 x_464                  1                     -19
    465 x_465                  1         42.406015037594
    468 x_468                  1                       0
    480 x_480                  1                       0
    528 x_528                  1                       0
    542 x_542                  1                      51
    556 x_556                  1                       0
    582 x_582                  1                      -3
    630 x_630                  1                      21
    639 x_639                  1                       0
    658 x_658                  1                       0
    659 x_659                  1                       0
    776 x_776                  1                       0
    853 x_853                  1                       0
    971 x_971                  1         -26.2556390977444
    991 x_991                  1                       0
   1067 x_1067                 1                       0
   1125 x_1125                 1                      13
   1137 x_1137                 1                       0
   1140 x_1140                 1                     -21
   1182 x_1182                 1                       0
   1266 x_1266                 1                       0
   1340 x_1340                 1                     -66
   1344 x_1344                 1                     -48
   1387 x_1387                 1                    25.5
   1438 x_1438                 1                       0
   1487 x_1487                 1                       0
   1490 x_1490                 1                       0
   1501 x_1501                 1                       0
   1522 x_1522                 1                       0
   1577 x_1577                 1         14.6503759398496
   1595 x_1595                 1                       0
   1643 x_1643                 1                       0
   1673 x_1673                 1         8.80451127819549
   1685 x_1685                 1                      -4
   1692 x_1692                 1         3.6578947368421
   1744 x_1744                 1         -19.2556390977444
   1763 x_1763                 1         -12.5563909774436
   1776 x_1776                 1                       0
   1801 x_1801                 1                       0
   1813 x_1813                 1                       0
   1821 x_1821                 1                       0
   1839 x_1839                 1                       0
   1877 x_1877                 1                       0
   1999 x_1999                 1                       0
   2012 x_2012                 1                       0
   2018 x_2018                 1                      -8
   2038 x_2038                 1                       0
   2104 x_2104                 1         -10.0601503759398
   2108 x_2108                 1                       0
   2177 x_2177                 1                       0
   2185 x_2185                 1         -21.1353383458647
   2214 x_2214                 1                       0
   2230 x_2230                 1         66.2406015037594
   2287 x_2287                 1                       0
   2310 x_2310                 1                     -13
   2329 x_2329                 1                       0
   2346 x_2346                 1                       0
   2347 x_2347                 1         6.23684210526315
   2379 x_2379                 1                       0
   2405 x_2405                 1                     -15
   2454 x_2454                 1                       0
   2488 x_2488                 1                       0
   2503 x_2503                 1                       0
   2580 x_2580                 1                       0
   2591 x_2591                 1                       0
   2649 x_2649                 1                       0
   2680 x_2680                 1                       0
